200
100
100
100
100
99
99
98
97
96
96
96
96
95
94
94
93
92
92
92
91
91
91
90
90
89
88
87
87
87
87
87
86
86
86
85
84
83
83
83
83
82
82
81
81
81
81
80
80
79
79
79
78
78
78
78
78
76
76
76
76
76
76
75
74
74
74
73
73
72
71
69
69
69
67
66
65
64
63
63
63
62
61
61
60
59
57
57
56
56
56
55
55
54
54
54
54
54
53
53
52
52
51
50
48
48
48
48
47
46
46
45
45
45
43
42
40
40
40
39
39
39
39
38
38
37
37
37
36
35
34
32
31
31
30
30
29
28
27
27
26
25
24
24
24
24
24
22
22
21
21
21
21
20
19
19
18
18
18
18
18
17
16
16
16
15
15
14
14
13
13
12
12
12
12
11
11
11
11
10
9
9
8
7
6
6
6
6
6
6
5
5
5
4
4
3
3
3
3
2
1
1
